86
Time limit set to 60 seconds
Running CP solver
/home/omastto1/General-Optimization-Solver/src/solvers/mmrcpsp.py:42(stream:108:6): Warning: Cumulative expression 'pulse': height is zero, expression is zero everywhere.
                                                                                               VarCumulAtom_149 = pulse(task_0_mode_0, 0)
/home/omastto1/General-Optimization-Solver/src/solvers/mmrcpsp.py:42(stream:108:1255): Warning: Cumulative expression 'pulse': height is zero, expression is zero everywhere.
                                                                                                  VarCumulAtom_198 = pulse(task_17_mode_0, 0)
/home/omastto1/General-Optimization-Solver/src/solvers/mmrcpsp.py:42(stream:109:6): Warning: Cumulative expression 'pulse': height is zero, expression is zero everywhere.
                                                                                               VarCumulAtom_202 = pulse(task_0_mode_0, 0)
/home/omastto1/General-Optimization-Solver/src/solvers/mmrcpsp.py:42(stream:109:1252): Warning: Cumulative expression 'pulse': height is zero, expression is zero everywhere.
                                                                                                  VarCumulAtom_251 = pulse(task_17_mode_0, 0)
 ! --------------------------------------------------- CP Optimizer 20.1.0.0 --
 ! Minimization problem - 69 variables, 51 constraints
 ! TimeLimit            = 60
 ! Workers              = 14
 ! LogVerbosity         = Terse
 ! Initial process time : 0.00s (0.00s extraction + 0.00s propagation)
 !  . Log search space  : 158.2 (before), 158.2 (after)
 !  . Memory usage      : 754.6 kB (before), 754.6 kB (after)
 ! Using parallel search with 14 workers.
 ! ----------------------------------------------------------------------------
 !          Best Branches  Non-fixed    W       Branch decision
                        0         69                 -
 + New bound is 25
 ! Using iterative diving.
 ! Using temporal relaxation.
 *            30       46  0.26s        1      (gap is 16.67%)
 *            29      101  0.26s        1      (gap is 13.79%)
 *            28      143  0.26s        1      (gap is 10.71%)
 *            27      209  0.26s        1      (gap is 7.41%)
 *            26      263  0.26s        1      (gap is 3.85%)
 *            25      340  0.26s        1      (gap is 0.00%)
 ! ----------------------------------------------------------------------------
 ! Search completed, 6 solutions found.
 ! Best objective         : 25 (optimal - effective tol. is 0)
 ! Best bound             : 25
 ! ----------------------------------------------------------------------------
 ! Number of branches     : 62999
 ! Number of fails        : 1641
 ! Total memory usage     : 9.5 MB (9.4 MB CP Optimizer + 0.1 MB Concert)
 ! Time spent in solve    : 0.30s (0.30s engine + 0.00s extraction)
 ! Search speed (br. / s) : 217237.9
 ! ----------------------------------------------------------------------------
task_0: (start=0, end=0, size=0, length=0)
Task 0 is scheduled in mode 0 from 0 to 0
task_1: (start=0, end=6, size=6, length=6)
Task 1 is scheduled in mode 1 from 0 to 6
task_2: (start=0, end=7, size=7, length=7)
Task 2 is scheduled in mode 1 from 0 to 7
task_3: (start=0, end=10, size=10, length=10)
Task 3 is scheduled in mode 2 from 0 to 10
task_4: (start=10, end=14, size=4, length=4)
Task 4 is scheduled in mode 0 from 10 to 14
task_5: (start=7, end=16, size=9, length=9)
Task 5 is scheduled in mode 2 from 7 to 16
task_6: (start=6, end=12, size=6, length=6)
Task 6 is scheduled in mode 0 from 6 to 12
task_7: (start=12, end=13, size=1, length=1)
Task 7 is scheduled in mode 0 from 12 to 13
task_8: (start=6, end=8, size=2, length=2)
Task 8 is scheduled in mode 1 from 6 to 8
task_9: (start=6, end=11, size=5, length=5)
Task 9 is scheduled in mode 1 from 6 to 11
task_10: (start=16, end=20, size=4, length=4)
Task 10 is scheduled in mode 1 from 16 to 20
task_11: (start=8, end=11, size=3, length=3)
Task 11 is scheduled in mode 0 from 8 to 11
task_12: (start=14, end=19, size=5, length=5)
Task 12 is scheduled in mode 0 from 14 to 19
task_13: (start=11, end=20, size=9, length=9)
Task 13 is scheduled in mode 2 from 11 to 20
task_14: (start=19, end=25, size=6, length=6)
Task 14 is scheduled in mode 0 from 19 to 25
task_15: (start=8, end=12, size=4, length=4)
Task 15 is scheduled in mode 2 from 8 to 12
task_16: (start=20, end=25, size=5, length=5)
Task 16 is scheduled in mode 0 from 20 to 25
task_17: (start=25, end=25, size=0, length=0)
Task 17 is scheduled in mode 0 from 25 to 25
Optimal solution found
Objective value: 25
Solution is optimal.
